NAME : rnd20_50.tsp.tsp.optbc.tour
TYPE : TOUR
DIMENSION : 50
TOUR_SECTION
1
47
13
25
23
31
49
27
15
30
37
10
19
43
17
50
40
42
45
20
34
35
24
41
11
29
38
9
36
6
16
33
2
12
7
21
44
28
5
22
18
4
48
3
14
26
46
8
32
39
-1